TYPE : Vertex Cover
DIMENSION: 35
EDGE_DATA_SECTION:
0 9
0 20
0 28
0 31
1 8
2 9
2 14
2 21
2 27
3 7
3 29
4 21
4 25
4 27
5 11
5 16
5 20
5 29
5 30
6 7
6 21
7 19
7 29
8 24
9 18
9 19
9 20
9 21
10 18
10 23
10 25
11 19
11 32
11 33
12 17
12 23
13 17
14 26
14 29
14 30
14 34
15 16
15 25
16 20
17 19
17 22
18 20
18 21
19 22
19 26
19 32
19 34
20 21
20 22
21 22
22 26
23 28
23 30
23 34
25 27
25 29
27 29
29 32
31 32
-1
VERTEX_DEGREE:
4.0 1.0 4.0 2.0 3.0 5.0 2.0 4.0 2.0 6.0 3.0 4.0 2.0 1.0 5.0 2.0 3.0 4.0 4.0 8.0 7.0 7.0 5.0 5.0 1.0 5.0 3.0 4.0 2.0 7.0 3.0 2.0 4.0 1.0 3.0
VERTEX_COVER:
0 5 7 8 9 11 14 16 17 18 19 21 22 23 25 27 29 32
EOF
